(set-logic ALL)
(declare-const n_VAR Int)
(assert (< 1 (+ n_VAR 1)))
(assert (< 2 (+ n_VAR 1)))
(assert (< 3 (+ n_VAR 1)))
(assert (< 4 (+ n_VAR 1)))
(assert (< 5 (+ n_VAR 1)))
(assert (< 6 (+ n_VAR 1)))
(assert (< 7 (+ n_VAR 1)))
(assert (< 8 (+ n_VAR 1)))
(assert (< 9 (+ n_VAR 1)))
(assert (< 10 (+ n_VAR 1)))
(assert (< 11 (+ n_VAR 1)))
(assert (< 12 (+ n_VAR 1)))
(assert (< 13 (+ n_VAR 1)))
(assert (< 14 (+ n_VAR 1)))
(check-sat)
(get-value (n_VAR))
